50
14264

483 137
559 492
556 366
294 994
583 581
318 729
835 359
254 628
820 440
628 336
525 288
357 95
883 633
105 544
35 244
37 472
946 484
410 384
333 18
797 788
536 143
110 554
668 748
483 270
385 133
860 660
156 72
336 778
379 35
770 242
961 604
352 455
491 595
429 523
151 78
149 187
712 230
165 633
71 660
246 692
267 995
218 78
845 495
914 482
486 884
163 940
39 974
452 297
398 324
465 59
